10
20
1020101
0
0
97 21 62 63 78 24 33 70 92 45 43 68 95 56 83 9 9 16 34 80 
1
0
96 15 67 54 69 16 28 69 91 52 48 69 95 53 84 13 10 22 28 84 
2
0
93 18 66 56 74 16 31 68 90 49 44 64 85 55 88 6 11 13 35 88 
3
0
92 22 65 55 75 23 34 69 88 45 46 65 88 58 87 12 17 13 28 82 
4
0
93 17 64 56 75 21 34 72 88 52 47 69 91 54 88 10 16 14 34 87 
5
0
91 25 63 57 68 18 30 75 94 49 42 61 92 52 89 13 9 15 28 83 
6
0
94 22 62 60 74 25 26 73 95 51 42 59 91 50 88 8 18 20 35 85 
7
0
98 24 62 60 78 24 35 74 88 44 46 62 89 51 90 14 15 18 33 84 
8
0
90 24 70 60 75 22 32 69 97 51 53 59 90 52 91 4 8 21 31 79 
9
0
97 21 66 54 73 16 32 70 97 42 46 66 87 56 88 12 16 16 28 80 
